(set-logic QF_SLIA)
(set-option :produce-models true)
(declare-const X String)
; welcomeforToolbarHost\x3A
(assert (str.in_re X (str.to_re "welcomeforToolbarHost:\u{0a}")))
; /^\/\d{9,10}\/1\/1\d{9}\.pdf$/U
(assert (not (str.in_re X (re.++ (str.to_re "//") ((_ re.loop 9 10) (re.range "0" "9")) (str.to_re "/1/1") ((_ re.loop 9 9) (re.range "0" "9")) (str.to_re ".pdf/U\u{0a}")))))
; http://www.scribd.com/doc/2569355/Geo-Distance-Search-with-MySQL
(assert (not (str.in_re X (re.++ (str.to_re "http://www") re.allchar (str.to_re "scribd") re.allchar (str.to_re "com/doc/2569355/Geo-Distance-Search-with-MySQL\u{0a}")))))
; frame_ver2\s+communityLibrarySoftwareWinCrashcomHost\x3Atid\x3D\u{25}toolbar\x5Fid
(assert (not (str.in_re X (re.++ (str.to_re "frame_ver2") (re.+ (re.union (str.to_re " ") (str.to_re "\u{09}") (str.to_re "\u{0a}") (str.to_re "\u{0c}") (str.to_re "\u{0d}"))) (str.to_re "communityLibrarySoftwareWinCrashcomHost:tid=%toolbar_id\u{0a}")))))
; /filename=[^\n]*\u{2e}xsl/i
(assert (str.in_re X (re.++ (str.to_re "/filename=") (re.* (re.comp (str.to_re "\u{0a}"))) (str.to_re ".xsl/i\u{0a}"))))
(assert (> (str.len X) 10))
(check-sat)
